(declare-const a Real)
(declare-const b Real)
(declare-const c Real)
(assert (= (+ (pow a 2) (pow b 2) (pow c 2)) 12))
(assert (> a 0))
(assert (> b 0))
(assert (> c 0))
(assert (not (<= (+ (* 3 (pow b 3)) (* 3 (pow c 3)) (* (pow (+ (* 9 c) (* 3 c (+ (pow b 2) (pow c 2))) (* 6 c (pow b 2)) (* 9 b (pow a 2))) -1) (pow (+ (* 3 c (+ (pow b 2) (pow c 2))) (* 6 c (pow b 2)) (* 9 a c) (* 9 b (pow a 2))) 2)) (* -4 (pow a 2) (pow (+ (* 3 (pow a 2)) (* 3 (pow b 2)) (* 3 (pow c 2))) (/ 1 2))) (* -4 (pow b 2) (pow (+ (* 3 (pow a 2)) (* 3 (pow b 2)) (* 3 (pow c 2))) (/ 1 2))) (* -4 (pow c 2) (pow (+ (* 3 (pow a 2)) (* 3 (pow b 2)) (* 3 (pow c 2))) (/ 1 2)))) 0)))
(check-sat)
(get-model)
(exit)